min: c;

c = 3.3290569615496 * u5_t4_h2 + 3.3290569615496 * u5_t7_h2 + 3.05504408692884 * u5_t4_h3 + 3.05504408692884 * u5_t7_h3 + 3.60158066519843 * u5_t1_h4 + 3.60158066519843 * u5_t3_h4 + 3.60158066519843 * u5_t4_h4 + 3.60158066519843 * u5_t7_h4 + 3.18409426874709 * u5_t1_h5 + 3.18409426874709 * u5_t3_h5 + 3.18409426874709 * u5_t4_h5 + 3.18409426874709 * u5_t7_h5 + 3.8252904596349 * u5_t1_h6 + 3.8252904596349 * u5_t3_h6 + 3.8252904596349 * u5_t4_h6 + 3.8252904596349 * u5_t6_h6 + 3.8252904596349 * u5_t7_h6 + 4.20236469683055 * u5_t1_h7 + 4.20236469683055 * u5_t3_h7 + 4.20236469683055 * u5_t4_h7 + 4.20236469683055 * u5_t6_h7 + 5.49370608156819 * u5_t1_h8 + 5.49370608156819 * u5_t3_h8 + 5.49370608156819 * u5_t4_h8 + 5.49370608156819 * u5_t6_h8 + 4.94540583534894 * u5_t1_h9 + 4.94540583534894 * u5_t3_h9 + 4.94540583534894 * u5_t4_h9 + 4.94540583534894 * u5_t6_h9 + 5.51699536177672 * u5_t1_h10 + 5.51699536177672 * u5_t3_h10 + 5.51699536177672 * u5_t4_h10 + 5.51699536177672 * u5_t6_h10 + 3.68201402092796 * u5_t1_h11 + 3.68201402092796 * u5_t3_h11 + 3.68201402092796 * u5_t4_h11 + 3.68201402092796 * u5_t6_h11 + 6.49795403092821 * u5_t1_h12 + 6.49795403092821 * u5_t3_h12 + 6.49795403092821 * u5_t4_h12 + 6.49795403092821 * u5_t6_h12 + 4.46086453425624 * u5_t1_h13 + 4.46086453425624 * u5_t3_h13 + 4.46086453425624 * u5_t4_h13 + 4.46086453425624 * u5_t6_h13 + 4.46086453425624 * u5_t8_h13 + 5.62873630520466 * u5_t1_h14 + 5.62873630520466 * u5_t3_h14 + 5.62873630520466 * u5_t4_h14 + 5.62873630520466 * u5_t6_h14 + 5.62873630520466 * u5_t8_h14 + 5.71478462954955 * u5_t1_h15 + 5.71478462954955 * u5_t3_h15 + 5.71478462954955 * u5_t4_h15 + 5.71478462954955 * u5_t6_h15 + 5.71478462954955 * u5_t8_h15 + 5.71478462954955 * u5_t9_h15 + 6.32676153018085 * u5_t1_h16 + 6.32676153018085 * u5_t3_h16 + 6.32676153018085 * u5_t4_h16 + 6.32676153018085 * u5_t5_h16 + 6.32676153018085 * u5_t6_h16 + 6.32676153018085 * u5_t8_h16 + 6.32676153018085 * u5_t9_h16 + 6.69162389965542 * u5_t1_h17 + 6.69162389965542 * u5_t5_h17 + 6.69162389965542 * u5_t6_h17 + 6.69162389965542 * u5_t8_h17 + 6.69162389965542 * u5_t9_h17 + 6.69162389965542 * u5_t10_h17 + 6.67283411929138 * u5_t1_h18 + 6.67283411929138 * u5_t2_h18 + 6.67283411929138 * u5_t5_h18 + 6.67283411929138 * u5_t6_h18 + 6.67283411929138 * u5_t9_h18 + 6.67283411929138 * u5_t10_h18 + 5.81991288986062 * u5_t1_h19 + 5.81991288986062 * u5_t2_h19 + 5.81991288986062 * u5_t5_h19 + 5.81991288986062 * u5_t9_h19 + 5.81991288986062 * u5_t10_h19 + 5.76369007145477 * u5_t1_h20 + 5.76369007145477 * u5_t2_h20 + 5.76369007145477 * u5_t5_h20 + 5.76369007145477 * u5_t9_h20 + 5.76369007145477 * u5_t10_h20 + 5.22709510137068 * u5_t2_h21 + 5.22709510137068 * u5_t5_h21 + 5.22709510137068 * u5_t9_h21 + 5.22709510137068 * u5_t10_h21 + 5.12829541645827 * u5_t2_h22 + 5.12829541645827 * u5_t5_h22 + 5.12829541645827 * u5_t9_h22 + 5.12829541645827 * u5_t10_h22 + 5.44571385465919 * u5_t5_h23 + 5.44571385465919 * u5_t9_h23 + 5.44571385465919 * u5_t10_h23;
0 <= u5_t1_h4 <= 1;
0 <= u5_t1_h5 <= 1;
0 <= u5_t1_h6 <= 1;
0 <= u5_t1_h7 <= 1;
0 <= u5_t1_h8 <= 1;
0 <= u5_t1_h9 <= 1;
0 <= u5_t1_h10 <= 1;
0 <= u5_t1_h11 <= 1;
0 <= u5_t1_h12 <= 1;
0 <= u5_t1_h13 <= 1;
0 <= u5_t1_h14 <= 1;
0 <= u5_t1_h15 <= 1;
0 <= u5_t1_h16 <= 1;
0 <= u5_t1_h17 <= 1;
0 <= u5_t1_h18 <= 1;
0 <= u5_t1_h19 <= 1;
0 <= u5_t1_h20 <= 1;
u5_t1_h4 + u5_t1_h5 + u5_t1_h6 + u5_t1_h7 + u5_t1_h8 + u5_t1_h9 + u5_t1_h10 + u5_t1_h11 + u5_t1_h12 + u5_t1_h13 + u5_t1_h14 + u5_t1_h15 + u5_t1_h16 + u5_t1_h17 + u5_t1_h18 + u5_t1_h19 + u5_t1_h20 = 1;
0 <= u5_t2_h18 <= 1;
0 <= u5_t2_h19 <= 1;
0 <= u5_t2_h20 <= 1;
0 <= u5_t2_h21 <= 1;
0 <= u5_t2_h22 <= 1;
u5_t2_h18 + u5_t2_h19 + u5_t2_h20 + u5_t2_h21 + u5_t2_h22 = 3;
0 <= u5_t3_h4 <= 1;
0 <= u5_t3_h5 <= 1;
0 <= u5_t3_h6 <= 1;
0 <= u5_t3_h7 <= 1;
0 <= u5_t3_h8 <= 1;
0 <= u5_t3_h9 <= 1;
0 <= u5_t3_h10 <= 1;
0 <= u5_t3_h11 <= 1;
0 <= u5_t3_h12 <= 1;
0 <= u5_t3_h13 <= 1;
0 <= u5_t3_h14 <= 1;
0 <= u5_t3_h15 <= 1;
0 <= u5_t3_h16 <= 1;
u5_t3_h4 + u5_t3_h5 + u5_t3_h6 + u5_t3_h7 + u5_t3_h8 + u5_t3_h9 + u5_t3_h10 + u5_t3_h11 + u5_t3_h12 + u5_t3_h13 + u5_t3_h14 + u5_t3_h15 + u5_t3_h16 = 1;
0 <= u5_t4_h2 <= 1;
0 <= u5_t4_h3 <= 1;
0 <= u5_t4_h4 <= 1;
0 <= u5_t4_h5 <= 1;
0 <= u5_t4_h6 <= 1;
0 <= u5_t4_h7 <= 1;
0 <= u5_t4_h8 <= 1;
0 <= u5_t4_h9 <= 1;
0 <= u5_t4_h10 <= 1;
0 <= u5_t4_h11 <= 1;
0 <= u5_t4_h12 <= 1;
0 <= u5_t4_h13 <= 1;
0 <= u5_t4_h14 <= 1;
0 <= u5_t4_h15 <= 1;
0 <= u5_t4_h16 <= 1;
u5_t4_h2 + u5_t4_h3 + u5_t4_h4 + u5_t4_h5 + u5_t4_h6 + u5_t4_h7 + u5_t4_h8 + u5_t4_h9 + u5_t4_h10 + u5_t4_h11 + u5_t4_h12 + u5_t4_h13 + u5_t4_h14 + u5_t4_h15 + u5_t4_h16 = 3;
0 <= u5_t5_h16 <= 1;
0 <= u5_t5_h17 <= 1;
0 <= u5_t5_h18 <= 1;
0 <= u5_t5_h19 <= 1;
0 <= u5_t5_h20 <= 1;
0 <= u5_t5_h21 <= 1;
0 <= u5_t5_h22 <= 1;
0 <= u5_t5_h23 <= 1;
u5_t5_h16 + u5_t5_h17 + u5_t5_h18 + u5_t5_h19 + u5_t5_h20 + u5_t5_h21 + u5_t5_h22 + u5_t5_h23 = 2;
0 <= u5_t6_h6 <= 1;
0 <= u5_t6_h7 <= 1;
0 <= u5_t6_h8 <= 1;
0 <= u5_t6_h9 <= 1;
0 <= u5_t6_h10 <= 1;
0 <= u5_t6_h11 <= 1;
0 <= u5_t6_h12 <= 1;
0 <= u5_t6_h13 <= 1;
0 <= u5_t6_h14 <= 1;
0 <= u5_t6_h15 <= 1;
0 <= u5_t6_h16 <= 1;
0 <= u5_t6_h17 <= 1;
0 <= u5_t6_h18 <= 1;
u5_t6_h6 + u5_t6_h7 + u5_t6_h8 + u5_t6_h9 + u5_t6_h10 + u5_t6_h11 + u5_t6_h12 + u5_t6_h13 + u5_t6_h14 + u5_t6_h15 + u5_t6_h16 + u5_t6_h17 + u5_t6_h18 = 2;
0 <= u5_t7_h2 <= 1;
0 <= u5_t7_h3 <= 1;
0 <= u5_t7_h4 <= 1;
0 <= u5_t7_h5 <= 1;
0 <= u5_t7_h6 <= 1;
u5_t7_h2 + u5_t7_h3 + u5_t7_h4 + u5_t7_h5 + u5_t7_h6 = 1;
0 <= u5_t8_h13 <= 1;
0 <= u5_t8_h14 <= 1;
0 <= u5_t8_h15 <= 1;
0 <= u5_t8_h16 <= 1;
0 <= u5_t8_h17 <= 1;
u5_t8_h13 + u5_t8_h14 + u5_t8_h15 + u5_t8_h16 + u5_t8_h17 = 3;
0 <= u5_t9_h15 <= 1;
0 <= u5_t9_h16 <= 1;
0 <= u5_t9_h17 <= 1;
0 <= u5_t9_h18 <= 1;
0 <= u5_t9_h19 <= 1;
0 <= u5_t9_h20 <= 1;
0 <= u5_t9_h21 <= 1;
0 <= u5_t9_h22 <= 1;
0 <= u5_t9_h23 <= 1;
u5_t9_h15 + u5_t9_h16 + u5_t9_h17 + u5_t9_h18 + u5_t9_h19 + u5_t9_h20 + u5_t9_h21 + u5_t9_h22 + u5_t9_h23 = 1;
0 <= u5_t10_h17 <= 1;
0 <= u5_t10_h18 <= 1;
0 <= u5_t10_h19 <= 1;
0 <= u5_t10_h20 <= 1;
0 <= u5_t10_h21 <= 1;
0 <= u5_t10_h22 <= 1;
0 <= u5_t10_h23 <= 1;
u5_t10_h17 + u5_t10_h18 + u5_t10_h19 + u5_t10_h20 + u5_t10_h21 + u5_t10_h22 + u5_t10_h23 = 1;
